DIMENSION: 26
EDGE_WEIGHT_TYPE: EXPLICIT
EDGE_WEIGHT_FORMAT: FULL_MATRIX
EDGE_WEIGHT_SECTION:
32767 32767 44 32767 12 22 82 14 31 32767 32767 32767 32767 32767 32767 17 32767 74 32767 32767 32767 32767 32767 32767 57 11 
32767 32767 32767 32767 47 32767 2 95 35 32767 32767 32767 32767 32767 33 32767 6 50 81 32767 32767 61 59 32767 32767 32767 
44 32767 32767 32767 32767 85 17 44 32767 9 5 7 32767 65 30 32767 32767 34 94 32767 32767 75 32767 32767 32767 32767 
32767 32767 32767 32767 99 32767 94 73 31 32767 38 90 3 43 32767 28 32767 32767 32767 32767 32767 32767 95 76 32767 23 
12 47 32767 99 32767 32767 79 82 64 32767 76 32767 78 32767 8 32767 10 32767 45 32767 32767 82 16 15 32767 94 
22 32767 85 32767 32767 32767 80 32767 32767 70 32767 32767 32767 32767 60 32767 70 17 32767 32767 32767 45 32767 73 28 32767 
82 2 17 94 79 80 32767 32767 32767 32767 52 32767 32767 32767 32767 69 32767 69 32767 76 18 32767 70 32767 66 56 
14 95 44 73 82 32767 32767 32767 32767 32767 32767 39 32767 32767 32767 32767 32767 5 73 32767 32767 32767 32767 32767 69 32767 
31 35 32767 31 64 32767 32767 32767 32767 32767 66 32767 32767 20 32767 32767 32767 32767 32767 32767 32767 40 32767 5 32767 32767 
32767 32767 9 32767 32767 70 32767 32767 32767 32767 17 21 100 32767 32767 32767 32767 32767 32767 32767 32767 3 32767 32 29 28 
32767 32767 5 38 76 32767 52 32767 66 17 32767 32767 67 32767 72 32767 32767 32767 32767 90 29 32767 96 32767 32767 19 
32767 32767 7 90 32767 32767 32767 39 32767 21 32767 32767 22 32767 32767 32767 60 52 48 32767 32767 32767 32767 32767 80 32767 
32767 32767 32767 3 78 32767 32767 32767 32767 100 67 22 32767 10 32767 38 32767 32767 32767 32767 11 32767 85 32767 31 32767 
32767 32767 65 43 32767 32767 32767 32767 20 32767 32767 32767 10 32767 6 30 32767 32767 40 11 32767 32767 32767 32767 32767 32767 
32767 33 30 32767 8 60 32767 32767 32767 32767 72 32767 32767 6 32767 32767 32767 32767 46 70 80 32767 32767 32767 32767 32767 
17 32767 32767 28 32767 32767 69 32767 32767 32767 32767 32767 38 30 32767 32767 32767 80 32767 32767 5 24 32767 82 32767 32767 
32767 6 32767 32767 10 70 32767 32767 32767 32767 32767 60 32767 32767 32767 32767 32767 32767 32767 32767 32767 2 68 53 41 32767 
74 50 34 32767 32767 17 69 5 32767 32767 32767 52 32767 32767 32767 80 32767 32767 32767 32767 41 33 81 55 32767 32767 
32767 81 94 32767 45 32767 32767 73 32767 32767 32767 48 32767 40 46 32767 32767 32767 32767 19 32767 32767 32767 32767 32767 32767 
32767 32767 32767 32767 32767 32767 76 32767 32767 32767 90 32767 32767 11 70 32767 32767 32767 19 32767 19 32767 2 32767 7 32767 
32767 32767 32767 32767 32767 32767 18 32767 32767 32767 29 32767 11 32767 80 5 32767 41 32767 19 32767 32767 32767 32767 64 32767 
32767 61 75 32767 82 45 32767 32767 40 3 32767 32767 32767 32767 32767 24 2 33 32767 32767 32767 32767 32767 32767 10 32767 
32767 59 32767 95 16 32767 70 32767 32767 32767 96 32767 85 32767 32767 32767 68 81 32767 2 32767 32767 32767 32767 32767 9 
32767 32767 32767 76 15 73 32767 32767 5 32 32767 32767 32767 32767 32767 82 53 55 32767 32767 32767 32767 32767 32767 32767 32767 
57 32767 32767 32767 32767 28 66 69 32767 29 32767 80 31 32767 32767 32767 41 32767 32767 7 64 10 32767 32767 32767 32767 
11 32767 32767 23 94 32767 56 32767 32767 28 19 32767 32767 32767 32767 32767 32767 32767 32767 32767 32767 32767 9 32767 32767 32767 
EOF